Traveling Salesman Problem/TSP_generados/Aleatorio1621103322_10.tsp
NAME: Aleatorio1621103322_10.tsp
COMMENT: Randomly generated scenario
TYPE: TSP
DIMENSION: 10
EDGE_WEIGHT_TYPE: ATT
NODE_COORD_SECTION
1 13.11 3.93
2 3.45 29.13
3 47.39 16.84
4 30.2 13.07
5 18.98 44.35
6 40.77 42.73
7 10.74 9.2
8 11.94 12.01
9 22.18 36.94
10 37.57 12.96
