Traveling Salesman Problem/TSP_generados/Aleatorio1621103322_10.opt.tour
NAME: Aleatorio1621103322_10.opt.tour
COMMENT: Optimal solution for Aleatorio1621103322_10 (141.26342426654662)
TYPE: TOUR
DIMENSION: 10
TOUR_SECTION
1 4 10 3 6 9 5 2 8 7
-1
EOF
